
Gurobi 9.5.2 (win64, gurobi_cl) logging started Mon Jul  4 17:25:40 2022

Set parameter Username
Set parameter LogFile to value "gurobi.log"
Academic license - for non-commercial use only - expires 2023-06-29
Using license file C:\Users\Antonio\gurobi.lic

Gurobi 9.5.2 (win64, gurobi_cl) logging started Mon Jul  4 17:26:49 2022

Set parameter Username
Set parameter LogFile to value "gurobi.log"
Academic license - for non-commercial use only - expires 2023-06-29
Using license file C:\Users\Antonio\gurobi.lic

Gurobi 9.5.2 (win64, gurobi_cl) logging started Mon Jul  4 17:33:00 2022

Set parameter Username
Set parameter LogFile to value "gurobi.log"
Academic license - for non-commercial use only - expires 2023-06-29
Using license file C:\Users\Antonio\gurobi.lic

Gurobi 9.5.2 (win64, gurobi_cl) logging started Mon Jul  4 17:35:10 2022

Set parameter Username
Set parameter LogFile to value "gurobi.log"
Academic license - for non-commercial use only - expires 2023-06-29
Using license file C:\Users\Antonio\gurobi.lic

Gurobi 9.5.2 (win64, gurobi_cl) logging started Mon Jul  4 17:43:58 2022

Set parameter Username
Set parameter LogFile to value "gurobi.log"
Academic license - for non-commercial use only - expires 2023-06-29
Using license file C:\Users\Antonio\gurobi.lic
